c ---- [ banner ] ------------------------------------------------------------
c
c Kissat SAT Solver
c 
c Copyright (c) 2021-2024 Armin Biere University of Freiburg
c Copyright (c) 2019-2021 Armin Biere Johannes Kepler University Linz
c 
c Version 4.0.1 eed4289154385962afcb67457206a6a17bb42e8e
c gcc (Gentoo 12.3.1_p20230526 p2) 12.3.1 20230526 -W -Wall -O3 -DNDEBUG
c Mon Nov 25 09:05:57 PST 2024 Linux cedar1.int.cedar.computecanada.ca 5.14.0-362.24.2.el9_3.x86_64 x86_64
c
c ---- [ parsing ] -----------------------------------------------------------
c
c opened and reading DIMACS file:
c
c   ./Benchmark_test/test2.cnf
c
c parsed 'p cnf 42387 183641' header
c closing input after reading 3451225 bytes (3 MB)
c finished parsing after 0.07 seconds
c
c ---- [ solving ] -----------------------------------------------------------
c
c  seconds switched rate     size/glue tier1  binary           remaining
c         MB reductions conflicts size  tier2     irredundant
c          level restarts redundant glue  trail           variables
c
c *  0.07 15 0 0 0  0 0   0   0 0.0 0 0 0 0 0% 78594 105047 42387 100%
c (  0.08 16 0 0 0  0 0   0   0 0.0 0 0 0 0 0% 78594 105047 42387 100%
c .  0.08 16 0 0 0  0 0   0   0 0.0 0 0 0 0 0% 78594 105047 42387 100%
c c  0.25 31 0 0 0  0 0   0   0 0.0 0 0 0 0 0% 78431 104827 40936 97%
c d  0.26 31 0 0 0  0 0   0   0 0.0 0 0 0 0 0% 75150 104826 40774 96%
c b  0.28 32 0 0 0  0 0   0   0 0.0 0 0 0 0 0% 75150 104826 40240 95%
c =  0.35 32 0 0 0  0 0   0   0 0.0 0 0 0 0 0% 75012 104625 40153 95%
c d  0.36 32 0 0 0  0 0   0   0 0.0 0 0 0 0 0% 75027 104466 40153 95%
c d  0.37 32 0 0 0  0 0   0   0 0.0 0 0 0 0 0% 74865 104466 40072 95%
c f  0.58 30 0 0 0  0 0   0   0 0.0 0 0 0 0 0% 53138 104463 41627 98%
c e  1.15 33 0 0 0  0 0   0   0 0.0 0 0 0 0 0% 15143 129572 25966 61%
c )  1.15 33 0 0 0  0 0   0   0 0.0 0 0 0 0 0% 15143 129572 25966 61%
c {  1.16 33 0 0 0  0 0   0   0 0.0 0 0 2 6 0% 15143 129572 25966 61%
c i  1.18 33 37 0 0 38 17  64  50 2.0 11 5 3 6 11% 15149 129571 25953 61%
c i  1.19 33 37 0 0 39 17  65  50 2.0 11 5 3 6 12% 15149 129571 25952 61%
c i  1.28 33 32 0 0 97 17 159 128 2.9 17 6 2 7 19% 15156 129571 25951 61%
c i  1.30 33 37 0 0 175 17 368 286 2.5 12 5 3 6 11% 15181 129569 25950 61%
c i  1.32 33 36 0 0 190 17 402 312 2.4 12 5 3 6 11% 15186 129569 25949 61%
c i  1.41 33 53 0 0 247 23 555 426 2.3 16 7 2 7 13% 15209 129568 25948 61%
c i  1.45 33 52 0 0 288 23 663 513 2.3 16 7 2 7 13% 15216 129567 25947 61%
c
c  seconds  switched   rate     size/glue tier1    binary           remaining
c         MB reductions conflicts     size  tier2      irredundant
c          level restarts   redundant   glue   trail           variables
c
c i  1.54 33 50 0 0 342 22 793 621 2.5 17 7 2 8 15% 15228 129566 25945 61%
c i  1.56 33 48 0 0 367 21 858 667 2.5 16 7 2 8 15% 15236 129565 25944 61%
c i  1.56 33 48 0 0 368 21 860 668 2.5 16 6 2 8 15% 15236 129565 25943 61%
c -  1.68 33 45 0 1 423 20 1000 690 2.5 16 6 2 7 16% 15137 129235 25943 61%
c }  1.68 33 45 1 1 423 20 1000 690 2.5 16 6 2 7 16% 15137 129235 25943 61%
c [  1.68 33 0 1 1 423 0 1000 690 0.0 0 0 2 6 0% 15137 129235 25943 61%
c B  1.68 33 40 1 1 423 5 1001 691 1.8 14 8 2 6 20% 15137 129235 25943 61%
c i  1.70 33 164 1 1 423 32 1034 716 2.2 31 14 2 6 55% 15139 129234 25942 61%
c -  1.79 33 70 1 2 423 5 2000 1408 2.5 18 7 2 9 30% 15184 129230 25942 61%
c W  1.83 33 70 1 2 423 5 2002 1410 2.5 18 7 2 9 30% 15177 129218 25942 61%
c c  2.01 33 57 1 2 424 4 2513 1839 2.7 18 7 2 9 33% 15638 129099 25891 61%
c d  2.02 33 57 1 2 424 4 2513 1839 2.7 18 7 2 9 33% 15579 129048 25890 61%
c b  2.03 33 57 1 2 424 4 2513 1839 2.7 18 7 2 9 33% 15579 129048 25855 61%
c u  2.05 33 57 1 2 424 4 2513 1770 2.7 18 7 2 9 33% 15545 129048 25855 61%
c v  2.08 33 57 1 2 424 4 2513 1735 2.7 18 7 2 9 33% 15545 129048 25855 61%
c w  2.09 33 57 1 2 424 4 2513 1719 2.7 18 7 2 9 33% 15545 129048 25855 61%
c x  2.11 33 57 1 2 424 4 2513 1719 2.7 18 7 2 9 33% 15697 128792 25799 61%
c =  2.19 33 57 1 2 424 4 2513 1719 2.7 18 7 2 9 33% 15714 128581 25783 61%
c d  2.21 33 57 1 2 424 4 2513 1719 2.7 18 7 2 9 33% 15631 128430 25714 61%
c t  2.22 33 57 1 2 424 4 2513 1719 2.7 18 7 2 9 33% 15536 128430 25714 61%
c
c  seconds  switched  rate       size/glue tier1    binary           remaining
c         MB reductions conflicts      size  tier2      irredundant
c          level restarts   redundant    glue   trail           variables
c
c f  2.25 33 57 1 2 424 4 2513 1719 2.7 18 7 2 9 33% 15546 127058 25715 61%
c c  2.33 38 57 1 2 424 4 2513 1717 2.7 18 7 2 9 33% 15483 126913 25661 61%
c d  2.34 38 57 1 2 424 4 2513 1717 2.7 18 7 2 9 33% 15370 126910 25661 61%
c u  2.37 38 57 1 2 424 4 2513 1591 2.7 18 7 2 9 33% 15360 126910 25660 61%
c v  2.39 38 57 1 2 424 4 2513 1574 2.7 18 7 2 9 33% 15360 126910 25660 61%
c w  2.40 38 57 1 2 424 4 2513 1573 2.7 18 7 2 9 33% 15360 126910 25660 61%
c x  2.43 38 57 1 2 424 4 2513 1570 2.7 18 7 2 9 33% 15375 126858 25652 61%
c =  2.51 38 57 1 2 424 4 2513 1570 2.7 18 7 2 9 33% 15384 126805 25643 60%
c d  2.52 38 57 1 2 424 4 2513 1569 2.7 18 7 2 9 33% 15393 126777 25640 60%
c t  2.53 38 57 1 2 424 4 2513 1569 2.7 18 7 2 9 33% 15343 126777 25638 60%
c f  2.56 38 57 1 2 424 4 2513 1569 2.7 18 7 2 9 33% 15355 125992 25642 60%
c i  2.56 38 57 1 2 424 4 2513 1569 2.7 18 7 2 9 33% 15355 125992 25642 60%
c i  2.64 38 51 1 2 424 4 2786 1764 2.7 17 6 2 9 33% 15372 125992 25641 60%
c i  2.68 38 49 1 2 424 4 2890 1841 2.8 18 6 2 9 32% 15381 125991 25640 60%
c i  2.75 38 48 1 2 425 4 3199 2110 2.7 17 6 2 9 31% 15390 125991 25639 60%
c ]  2.76 38 47 2 2 425 4 3219 2127 2.8 18 6 2 9 31% 15391 125991 25639 60%
c {  2.76 38 45 2 2 425 20 3219 2127 2.5 16 6 2 7 16% 15391 125991 25639 60%
c i  2.76 38 46 2 2 428 20 3227 2133 2.5 16 6 2 7 16% 15392 125991 25638 60%
c i  2.76 38 46 2 2 428 20 3228 2133 2.5 16 6 2 7 16% 15392 125991 25637 60%
c i  2.76 38 45 2 2 441 20 3259 2149 2.5 16 6 2 7 15% 15403 125991 25636 60%
c
c  seconds  switched   rate       size/glue tier1    binary           remaining
c         MB reductions conflicts       size  tier2      irredundant
c          level restarts    redundant    glue   trail           variables
c
c i  2.76 38 45 2 2 447 20 3273 2156 2.5 15 6 2 7 15% 15408 125989 25635 60%
c i  2.76 38 44 2 2 464 20 3311 2187 2.5 15 6 2 7 15% 15414 125988 25634 60%
c i  2.77 38 42 2 2 485 19 3359 2217 2.5 15 6 2 7 14% 15421 125987 25633 60%
c i  2.77 38 42 2 2 485 19 3362 2217 2.5 15 6 2 7 14% 15422 125987 25631 60%
c i  2.78 38 42 2 2 496 19 3389 2228 2.4 14 6 2 7 14% 15428 125985 25628 60%
c i  2.78 38 42 2 2 497 19 3391 2228 2.4 14 6 2 7 14% 15429 125984 25627 60%
c i  2.78 38 41 2 2 498 19 3392 2228 2.4 14 6 2 7 14% 15429 125984 25617 60%
c i  2.78 38 41 2 2 500 19 3396 2231 2.4 14 6 2 7 14% 15429 125984 25517 60%
c i  2.78 38 41 2 2 501 19 3398 2231 2.4 14 6 2 7 14% 15430 125984 25516 60%
c -  2.81 38 41 2 3 509 18 3414 1795 2.4 14 6 2 6 14% 15009 125984 25516 60%
c i  2.82 38 41 2 3 517 18 3433 1800 2.4 14 6 2 6 14% 15016 125984 25510 60%
c i  2.82 38 40 2 3 517 18 3434 1800 2.4 14 6 2 6 14% 15016 125984 25433 60%
c i  2.84 38 39 2 3 544 18 3505 1850 2.5 14 6 2 6 14% 15033 125983 25431 60%
c i  2.85 38 39 2 3 547 18 3512 1854 2.5 14 6 2 6 14% 15035 125983 25428 60%
c i  2.85 38 39 2 3 552 18 3523 1862 2.5 14 6 2 6 14% 15037 125983 25392 60%
c i  2.86 38 39 2 3 553 18 3525 1863 2.5 14 6 2 6 14% 15037 125983 25387 60%
c i  2.86 38 39 2 3 555 18 3531 1867 2.5 14 6 2 6 14% 15037 125983 25384 60%
c i  2.86 38 39 2 3 567 18 3559 1886 2.5 14 6 2 6 14% 15042 125983 25373 60%
c i  2.89 38 36 2 3 614 17 3673 1966 2.5 13 5 2 6 14% 15060 125981 25370 60%
c i  2.90 38 36 2 3 632 17 3718 1995 2.4 13 5 2 6 14% 15066 125981 25369 60%
c
c  seconds  switched   rate       size/glue tier1    binary           remaining
c         MB reductions conflicts       size  tier2      irredundant
c          level restarts    redundant    glue   trail           variables
c
c i  2.90 38 36 2 3 635 16 3726 1998 2.4 13 5 2 6 14% 15068 125981 25364 60%
c i  2.91 38 36 2 3 637 16 3729 2000 2.4 13 5 2 6 14% 15068 125981 25362 60%
c i  2.91 38 36 2 3 647 17 3749 2008 2.4 13 5 2 6 14% 15078 125981 25361 60%
c i  2.91 38 36 2 3 648 17 3753 2008 2.4 13 5 2 6 14% 15080 125981 25355 60%
c i  2.97 38 36 2 3 720 17 3932 2145 2.3 13 5 2 6 13% 15103 125981 25354 60%
c i  2.97 38 36 2 3 724 17 3944 2154 2.3 13 5 2 6 13% 15104 125981 25349 60%
c }  3.06 38 34 3 3 837 16 4219 2371 2.3 12 5 2 6 14% 15132 125980 25349 60%
c [  3.06 38 47 3 3 837 4 4219 2371 2.8 18 6 2 9 31% 15132 125980 25349 60%
c I  3.08 38 48 3 3 837 4 4262 2412 2.8 18 6 2 9 31% 15132 125980 25349 60%
c -  3.15 38 43 3 4 837 3 5147 2622 2.5 16 7 2 8 28% 14433 125980 25349 60%
c ]  3.45 38 41 4 4 838 3 5790 3239 2.9 21 7 2 8 30% 14435 125980 25349 60%
c {  3.45 38 34 4 4 838 16 5790 3239 2.3 12 5 2 6 14% 14435 125980 25349 60%
c i  3.46 38 36 4 4 850 16 5827 3269 2.3 12 5 2 6 14% 14439 125979 25346 60%
c i  3.49 38 36 4 4 904 16 5969 3388 2.3 12 5 2 6 13% 14451 125978 25345 60%
c i  3.49 38 36 4 4 905 16 5972 3386 2.3 12 5 2 6 13% 14452 125978 25250 60%
c i  3.50 38 35 4 4 914 16 5994 3400 2.3 12 5 2 6 13% 14457 125978 25244 60%
c i  3.50 38 35 4 4 915 16 5997 3400 2.3 12 5 2 6 13% 14458 125977 25018 59%
c i  3.53 38 35 4 4 961 16 6108 3499 2.3 12 5 2 6 13% 14464 125977 24800 59%
c i  3.56 38 35 4 4 1012 16 6259 3635 2.2 11 5 2 6 13% 14474 125977 24797 59%
c i  3.59 38 36 4 4 1064 16 6439 3796 2.2 11 5 2 6 13% 14481 125977 24784 58%
c
c  seconds  switched    rate       size/glue tier1    binary           remaining
c         MB reductions  conflicts       size  tier2      irredundant
c          level  restarts    redundant    glue   trail           variables
c
c i  3.68 38 36 4 4 1159 16 6783 4100 2.2 11 5 2 6 13% 14500 125976 24783 58%
c i  3.73 38 36 4 4 1200 16 6925 4229 2.2 11 5 2 6 13% 14507 125976 24770 58%
c i  3.73 38 36 4 4 1202 16 6934 4233 2.2 11 5 2 6 13% 14508 125975 24769 58%
c -  3.78 38 36 4 5 1262 15 7149 3722 2.2 11 5 2 5 13% 13431 125975 24769 58%
c i  3.78 38 35 4 5 1265 15 7158 3730 2.2 11 5 2 5 13% 13431 125975 24642 58%
c i  3.80 38 35 4 5 1294 15 7263 3817 2.2 11 5 2 5 13% 13434 125975 24641 58%
c i  3.90 38 36 4 5 1396 15 7624 4144 2.2 11 5 2 5 13% 13447 125974 24640 58%
c c  3.99 38 36 4 5 1427 15 7736 4229 2.2 11 5 2 5 13% 13366 120222 24620 58%
c d  4.00 38 36 4 5 1427 15 7736 4220 2.2 11 5 2 5 13% 16544 117001 24620 58%
c d  4.01 38 36 4 5 1427 15 7736 4207 2.2 11 5 2 5 13% 13197 113939 23067 54%
c b  4.02 38 36 4 5 1427 15 7736 4207 2.2 11 5 2 5 13% 13197 113939 23061 54%
c u  4.06 38 36 4 5 1427 15 7736 3944 2.2 11 5 2 5 13% 13171 113939 23060 54%
c v  4.10 38 36 4 5 1427 15 7736 3718 2.2 11 5 2 5 13% 13175 113939 22972 54%
c w  4.12 38 36 4 5 1427 15 7736 3698 2.2 11 5 2 5 13% 13175 113939 22972 54%
c x  4.15 38 36 4 5 1427 15 7736 3693 2.2 11 5 2 5 13% 13429 112863 22954 54%
c =  4.32 38 36 4 5 1427 15 7736 3693 2.2 11 5 2 5 13% 13762 112259 22643 53%
c d  4.33 38 36 4 5 1427 15 7736 3610 2.2 11 5 2 5 13% 13551 111170 22556 53%
c d  4.33 38 36 4 5 1427 15 7736 3607 2.2 11 5 2 5 13% 13258 111144 22407 53%
c t  4.35 38 36 4 5 1427 15 7736 3607 2.2 11 5 2 5 13% 12926 111144 22384 53%
c b  4.35 38 36 4 5 1427 15 7736 3607 2.2 11 5 2 5 13% 12926 111144 22354 53%
c
c  seconds  switched    rate       size/glue tier1    binary           remaining
c         MB reductions  conflicts       size  tier2      irredundant
c          level  restarts    redundant    glue   trail           variables
c
c f  4.39 38 36 4 5 1427 15 7736 3607 2.2 11 5 2 5 13% 12909 110190 22426 53%
c b  4.41 38 36 4 5 1427 15 7736 3603 2.2 11 5 2 5 13% 13125 109744 22415 53%
c u  4.44 38 36 4 5 1427 15 7736 3430 2.2 11 5 2 5 13% 13079 109744 22415 53%
c v  4.48 38 36 4 5 1427 15 7736 3228 2.2 11 5 2 5 13% 13083 109744 22413 53%
c w  4.50 38 36 4 5 1427 15 7736 3208 2.2 11 5 2 5 13% 13083 109744 22413 53%
c x  4.53 38 36 4 5 1427 15 7736 3207 2.2 11 5 2 5 13% 13262 109091 22263 53%
c =  4.69 38 36 4 5 1427 15 7736 3207 2.2 11 5 2 5 13% 13293 108464 22228 52%
c d  4.70 38 36 4 5 1427 15 7736 3138 2.2 11 5 2 5 13% 13284 108074 22102 52%
c d  4.71 38 36 4 5 1427 15 7736 3125 2.2 11 5 2 5 13% 13330 107312 21911 52%
c t  4.72 38 36 4 5 1427 15 7736 3125 2.2 11 5 2 5 13% 13166 107312 21905 52%
c b  4.73 38 36 4 5 1427 15 7736 3125 2.2 11 5 2 5 13% 13166 107312 21903 52%
c f  4.77 38 36 4 5 1427 15 7736 3125 2.2 11 5 2 5 13% 13471 105684 22092 52%
c i  4.77 38 36 4 5 1427 15 7736 3125 2.2 11 5 2 5 13% 13471 105684 22092 52%
c i  4.82 38 35 4 5 1495 15 7983 3340 2.1 11 5 2 5 13% 13484 105684 22091 52%
c }  4.85 38 36 5 5 1538 15 8142 3466 2.1 11 5 2 5 13% 13492 105683 22091 52%
c [  4.85 38 41 5 5 1538 3 8142 3466 2.9 21 7 2 8 30% 13492 105683 22091 52%
c B  4.85 38 41 5 5 1538 3 8142 3466 2.9 21 7 2 8 30% 13492 105683 22091 52%
c -  5.01 38 38 5 6 1539 3 9385 3957 2.8 20 7 2 8 27% 12306 105649 22091 52%
c ]  5.42 38 40 6 6 1540 3 10805 5264 2.6 22 8 2 8 30% 12312 105648 22091 52%
c {  5.42 38 36 6 6 1540 15 10805 5264 2.1 11 5 2 5 13% 12312 105648 22091 52%
c
c  seconds  switched    rate        size/glue tier1    binary           remaining
c         MB reductions   conflicts       size  tier2      irredundant
c          level  restarts     redundant    glue   trail           variables
c
c o  5.43 38 37 6 6 1543 15 10817 5274 2.1 11 5 2 5 13% 12314 105648 22091 52%
c i  5.48 38 36 6 6 1606 15 11042 5455 2.2 11 5 2 5 13% 12333 105644 22032 52%
c i  5.49 38 35 6 6 1613 15 11065 5475 2.2 11 5 2 5 13% 12334 105644 22030 52%
c i  5.52 38 35 6 6 1652 14 11203 5594 2.2 11 5 2 5 13% 12343 105644 22029 52%
c i  5.57 38 34 6 6 1719 14 11437 5798 2.2 11 5 2 5 13% 12352 105643 22028 52%
c -  5.64 38 33 6 7 1834 13 11834 4775 2.2 11 5 1 4 13% 12140 105639 22028 52%
c i  5.64 38 33 6 7 1847 13 11880 4807 2.2 11 5 1 4 13% 12145 105639 22017 52%
c i  5.66 38 33 6 7 1867 13 11947 4868 2.2 11 5 1 4 13% 12147 105639 22013 52%
c i  5.71 38 32 6 7 1956 13 12283 5153 2.2 11 5 1 4 13% 12163 105637 22012 52%
c i  5.72 38 32 6 7 1965 13 12324 5190 2.2 11 5 1 4 13% 12163 105637 21986 52%
c s  5.81 38 31 6 7 2032 13 12558 5371 2.2 11 5 1 4 13% 13607 98764 21986 52%
c e  6.18 38 31 6 7 2032 13 12558 5371 2.2 11 5 1 4 13% 7842 90117 16108 38%
c 2  6.18 38 31 6 7 2032 13 12558 5371 2.2 11 5 1 4 13% 7833 90117 16107 38%
c s  6.21 38 31 6 7 2032 13 12558 5371 2.2 11 5 1 4 13% 7908 87825 16107 38%
c e  6.30 38 31 6 7 2032 13 12558 5371 2.2 11 5 1 4 13% 7633 87699 15913 38%
c ^  6.30 38 31 6 7 2032 13 12558 5371 2.2 11 5 1 4 13% 7633 87699 15913 38%
c i  6.33 38 31 6 7 2081 13 12726 3325 2.2 11 5 1 4 13% 7639 87699 15912 38%
c i  6.33 38 31 6 7 2083 13 12734 3329 2.2 11 5 1 4 13% 7641 87699 15900 38%
c i  6.34 38 31 6 7 2091 13 12765 3350 2.2 11 5 1 4 13% 7647 87699 15898 38%
c i  6.38 38 31 6 7 2180 12 13061 3613 2.2 11 5 1 4 12% 7660 87697 15895 37%
c
c  seconds  switched    rate        size/glue tier1    binary         remaining
c         MB reductions   conflicts       size  tier2     irredundant
c          level  restarts     redundant    glue   trail         variables
c
c i  6.49 38 29 6 7 2398 12 13829 4279 2.2 10 5 1 4 12% 7693 87694 15892 37%
c i  6.52 38 29 6 7 2469 12 14089 4491 2.2 10 5 1 4 12% 7703 87694 15891 37%
c i  6.54 38 29 6 7 2520 12 14264 4634 2.2 10 5 1 4 12% 7709 87694 15890 37%
c i  6.54 38 28 6 7 2528 12 14290 4654 2.2 10 5 1 4 12% 7713 87694 15888 37%
c i  6.57 38 28 6 7 2573 11 14457 4804 2.2 10 5 1 4 12% 7714 87694 15887 37%
c -  6.58 38 28 6 8 2579 11 14480 4036 2.2 10 5 1 4 12% 7640 86879 15887 37%
c i  6.62 38 28 6 8 2657 11 14748 4255 2.2 10 5 1 4 12% 7654 86879 15886 37%
c }  6.64 38 28 7 8 2692 11 14874 4359 2.2 10 5 1 4 12% 7659 86879 15886 37%
c [  6.64 38 40 7 8 2692 3 14874 4359 2.6 22 8 2 8 30% 7659 86879 15886 37%
c W  6.66 38 40 7 8 2692 3 14874 4359 2.6 22 8 2 8 30% 7653 86876 15886 37%
c c  6.85 38 37 7 8 2692 3 15821 5198 2.6 21 8 2 8 29% 7681 86733 15820 37%
c d  6.85 38 37 7 8 2692 3 15821 5184 2.6 21 8 2 8 29% 7569 86719 15820 37%
c d  6.86 38 37 7 8 2692 3 15821 5184 2.6 21 8 2 8 29% 7567 86719 15819 37%
c b  6.86 38 37 7 8 2692 3 15821 5184 2.6 21 8 2 8 29% 7567 86719 15810 37%
c u  6.90 38 37 7 8 2692 3 15821 4595 2.6 21 8 2 8 29% 7604 86719 15755 37%
c v  6.94 38 37 7 8 2692 3 15821 4220 2.6 21 8 2 8 29% 7614 86719 15755 37%
c w  6.96 38 37 7 8 2692 3 15821 3949 2.6 21 8 2 8 29% 7612 86719 15755 37%
c x  7.00 38 37 7 8 2692 3 15821 3948 2.6 21 8 2 8 29% 8162 83995 15724 37%
c =  7.19 38 37 7 8 2692 3 15821 3948 2.6 21 8 2 8 29% 8702 83391 15439 36%
c d  7.20 38 37 7 8 2692 3 15821 3919 2.6 21 8 2 8 29% 7652 83321 15325 36%
c
c  seconds  switched   rate        size/glue tier1    binary         remaining
c         MB reductions  conflicts       size  tier2     irredundant
c          level  restarts    redundant    glue   trail         variables
c
c d  7.20 38 37 7 8 2692 3 15821 3918 2.6 21 8 2 8 29% 7646 83311 15322 36%
c t  7.21 38 37 7 8 2692 3 15821 3918 2.6 21 8 2 8 29% 7312 83311 15316 36%
c b  7.21 38 37 7 8 2692 3 15821 3918 2.6 21 8 2 8 29% 7312 83311 15314 36%
c f  7.25 38 37 7 8 2692 3 15821 3918 2.6 21 8 2 8 29% 7451 82252 15401 36%
c c  7.31 38 37 7 8 2692 3 15821 3704 2.6 21 8 2 8 29% 6987 82168 15397 36%
c d  7.32 38 37 7 8 2692 3 15821 3703 2.6 21 8 2 8 29% 6978 82152 15391 36%
c d  7.32 38 37 7 8 2692 3 15821 3697 2.6 21 8 2 8 29% 7154 81667 15361 36%
c b  7.32 38 37 7 8 2692 3 15821 3697 2.6 21 8 2 8 29% 7154 81667 15360 36%
c u  7.35 38 37 7 8 2692 3 15821 3538 2.6 21 8 2 8 29% 7165 81667 15330 36%
c v  7.40 38 37 7 8 2692 3 15821 3150 2.6 21 8 2 8 29% 7178 81667 15330 36%
c w  7.42 38 37 7 8 2692 3 15821 3137 2.6 21 8 2 8 29% 7178 81667 15330 36%
c x  7.45 38 37 7 8 2692 3 15821 3137 2.6 21 8 2 8 29% 7356 81145 15330 36%
c =  7.65 38 37 7 8 2692 3 15821 3137 2.6 21 8 2 8 29% 7932 80040 15041 35%
c d  7.66 38 37 7 8 2692 3 15821 3124 2.6 21 8 2 8 29% 7012 79977 15017 35%
c d  7.66 38 37 7 8 2692 3 15821 3124 2.6 21 8 2 8 29% 7006 79977 15014 35%
c t  7.67 38 37 7 8 2692 3 15821 3124 2.6 21 8 2 8 29% 6936 79977 15014 35%
c f  7.72 38 37 7 8 2692 3 15821 3124 2.6 21 8 2 8 29% 7406 78839 15286 36%
c i  7.72 38 37 7 8 2692 3 15821 3124 2.6 21 8 2 8 29% 7406 78839 15286 36%
c i  7.74 38 36 7 8 2693 2 16041 3257 2.6 21 8 2 8 28% 7416 78839 15285 36%
c i  7.77 38 35 7 8 2693 2 16327 3491 2.6 20 8 2 8 28% 7418 78839 15240 36%
c
c  seconds  switched   rate        size/glue tier1    binary         remaining
c         MB reductions  conflicts       size  tier2     irredundant
c          level  restarts    redundant    glue   trail         variables
c
c i  7.78 38 35 7 8 2693 2 16422 3562 2.6 20 8 2 8 28% 7420 78839 14890 35%
c ]  7.78 38 35 7 8 2693 2 16444 3572 2.6 20 8 2 8 27% 7422 78839 14707 35%
c 0  7.78 38 28 7 8 2693 11 16444 3572 2.2 10 5 1 4 12% 7422 78839 14707 35%
c
c ---- [ result ] ------------------------------------------------------------
c
s UNSATISFIABLE
c
c ---- [ profiling ] ---------------------------------------------------------
c
c           3.63   46.61 %  search
c           3.00   38.54 %  simplify
c           2.92   37.57 %  probe
c           2.05   26.41 %  focused
c           1.57   20.19 %  stable
c           1.07   13.72 %  preprocess
c           0.95   12.18 %  sweep
c           0.68    8.77 %  vivify
c           0.57    7.29 %  fastel
c           0.54    6.93 %  eliminate
c           0.52    6.67 %  congruence
c           0.44    5.62 %  factor
c           0.24    3.07 %  substitute
c           0.07    0.91 %  subsume
c           0.07    0.90 %  reduce
c           0.07    0.84 %  parse
c           0.05    0.66 %  transitive
c           0.05    0.59 %  backbone
c           0.04    0.46 %  walking
c           0.02    0.27 %  lucky
c =============================================
c           7.78  100.00 %  total
c
c ---- [ statistics ] --------------------------------------------------------
c
c chronological:                           45                0 %  conflicts
c conflicts:                            16444             2111.96 per second
c congruent:                             1644                4 %  variables
c decisions:                           111526                6.78 per conflict
c eliminated:                           21732               51 %  variables
c factored:                              2180                5 %  variables
c fast_eliminated:                      15661               72 %  eliminated
c fast_strengthened:                     1451               22 %  per strengthened
c fast_subsumed:                         3096               31 %  per subsumed
c iterations:                              79                0 %  variables
c propagations:                      24653372          3166311    per second
c reductions:                               8             2056    interval
c reordered:                                1            16444    interval
c rephased:                                 5             3289    interval
c restarts:                              2693                6    interval
c strengthened:                          6700                0 %  checks
c substituted:                           4912               12 %  variables
c subsumed:                              9841                1 %  checks
c switched:                                 7             2349    interval
c vivified:                              6607               32 %  checks
c walks:                                    2             8222    interval
c
c ---- [ glue usage ] --------------------------------------------------------
c
c focused glue 1 used 13828 clauses 53.01% accumulated 53.01% tier1
c focused glue 2 used  6421 clauses 24.62% accumulated 77.63%
c focused glue 3 used  2751 clauses 10.55% accumulated 88.17%
c focused glue 4 used  1306 clauses  5.01% accumulated 93.18% tier2
c
c stable glue 2   used 7972 clauses 21.94% accumulated 63.69% tier1
c stable glue 3   used 4466 clauses 12.29% accumulated 75.98%
c stable glue 4-5 used 3318 clauses  9.13% accumulated 85.11%
c stable glue 6   used 1103 clauses  3.04% accumulated 88.15%
c stable glue 7   used  834 clauses  2.30% accumulated 90.44% tier2
c
c ---- [ resources ] ---------------------------------------------------------
c
c maximum-resident-set-size:         40599552 bytes         39 MB
c process-time:                             8s               7.78 seconds
c
c ---- [ shutting down ] -----------------------------------------------------
c
c exit 20
